% File represents an instance of a Composite Structure problem to be solved by a CP framework
% Created on 2025-03-26 10:41:17.393
T = 50;
n = 9;
m = 12;
edges = [(1, 2),
(4, 5),
(7, 8),
(2, 3),
(5, 6),
(8, 9),
(1, 4),
(4, 7),
(2, 5),
(5, 8),
(3, 6),
(6, 9)];
counts = [|8, 12, 8, 22,
|6, 12, 6, 20,
|4, 12, 4, 18,
|8, 10, 8, 18,
|6, 8, 6, 18,
|4, 8, 4, 16,
|8, 8, 8, 16,
|6, 8, 6, 14,
|4, 6, 4, 14|];
